p cnf 420 1394
1 2 3 0
-91 0
-1 92 0
-2 92 0
-1 -2 93 0
-3 94 0
-91 94 0
-3 -91 95 0
-92 96 0
-94 96 0
-92 -94 97 0
-93 98 0
-95 98 0
-93 -95 99 0
-97 100 0
-98 100 0
-97 -98 101 0
-100 0
19 20 21 0
-102 0
-19 103 0
-20 103 0
-19 -20 104 0
-21 105 0
-102 105 0
-21 -102 106 0
-103 107 0
-105 107 0
-103 -105 108 0
-104 109 0
-106 109 0
-104 -106 110 0
-108 111 0
-109 111 0
-108 -109 112 0
-111 0
37 38 39 0
-113 0
-37 114 0
-38 114 0
-37 -38 115 0
-39 116 0
-113 116 0
-39 -113 117 0
-114 118 0
-116 118 0
-114 -116 119 0
-115 120 0
-117 120 0
-115 -117 121 0
-119 122 0
-120 122 0
-119 -120 123 0
-122 0
55 56 57 0
-124 0
-55 125 0
-56 125 0
-55 -56 126 0
-57 127 0
-124 127 0
-57 -124 128 0
-125 129 0
-127 129 0
-125 -127 130 0
-126 131 0
-128 131 0
-126 -128 132 0
-130 133 0
-131 133 0
-130 -131 134 0
-133 0
73 74 75 0
-135 0
-73 136 0
-74 136 0
-73 -74 137 0
-75 138 0
-135 138 0
-75 -135 139 0
-136 140 0
-138 140 0
-136 -138 141 0
-137 142 0
-139 142 0
-137 -139 143 0
-141 144 0
-142 144 0
-141 -142 145 0
-144 0
4 5 6 0
-146 0
-4 147 0
-5 147 0
-4 -5 148 0
-6 149 0
-146 149 0
-6 -146 150 0
-147 151 0
-149 151 0
-147 -149 152 0
-148 153 0
-150 153 0
-148 -150 154 0
-152 155 0
-153 155 0
-152 -153 156 0
-155 0
22 23 24 0
-157 0
-22 158 0
-23 158 0
-22 -23 159 0
-24 160 0
-157 160 0
-24 -157 161 0
-158 162 0
-160 162 0
-158 -160 163 0
-159 164 0
-161 164 0
-159 -161 165 0
-163 166 0
-164 166 0
-163 -164 167 0
-166 0
40 41 42 0
-168 0
-40 169 0
-41 169 0
-40 -41 170 0
-42 171 0
-168 171 0
-42 -168 172 0
-169 173 0
-171 173 0
-169 -171 174 0
-170 175 0
-172 175 0
-170 -172 176 0
-174 177 0
-175 177 0
-174 -175 178 0
-177 0
58 59 60 0
-179 0
-58 180 0
-59 180 0
-58 -59 181 0
-60 182 0
-179 182 0
-60 -179 183 0
-180 184 0
-182 184 0
-180 -182 185 0
-181 186 0
-183 186 0
-181 -183 187 0
-185 188 0
-186 188 0
-185 -186 189 0
-188 0
76 77 78 0
-190 0
-76 191 0
-77 191 0
-76 -77 192 0
-78 193 0
-190 193 0
-78 -190 194 0
-191 195 0
-193 195 0
-191 -193 196 0
-192 197 0
-194 197 0
-192 -194 198 0
-196 199 0
-197 199 0
-196 -197 200 0
-199 0
7 8 9 0
-201 0
-7 202 0
-8 202 0
-7 -8 203 0
-9 204 0
-201 204 0
-9 -201 205 0
-202 206 0
-204 206 0
-202 -204 207 0
-203 208 0
-205 208 0
-203 -205 209 0
-207 210 0
-208 210 0
-207 -208 211 0
-210 0
25 26 27 0
-212 0
-25 213 0
-26 213 0
-25 -26 214 0
-27 215 0
-212 215 0
-27 -212 216 0
-213 217 0
-215 217 0
-213 -215 218 0
-214 219 0
-216 219 0
-214 -216 220 0
-218 221 0
-219 221 0
-218 -219 222 0
-221 0
43 44 45 0
-223 0
-43 224 0
-44 224 0
-43 -44 225 0
-45 226 0
-223 226 0
-45 -223 227 0
-224 228 0
-226 228 0
-224 -226 229 0
-225 230 0
-227 230 0
-225 -227 231 0
-229 232 0
-230 232 0
-229 -230 233 0
-232 0
61 62 63 0
-234 0
-61 235 0
-62 235 0
-61 -62 236 0
-63 237 0
-234 237 0
-63 -234 238 0
-235 239 0
-237 239 0
-235 -237 240 0
-236 241 0
-238 241 0
-236 -238 242 0
-240 243 0
-241 243 0
-240 -241 244 0
-243 0
79 80 81 0
-245 0
-79 246 0
-80 246 0
-79 -80 247 0
-81 248 0
-245 248 0
-81 -245 249 0
-246 250 0
-248 250 0
-246 -248 251 0
-247 252 0
-249 252 0
-247 -249 253 0
-251 254 0
-252 254 0
-251 -252 255 0
-254 0
10 11 12 0
-256 0
-10 257 0
-11 257 0
-10 -11 258 0
-12 259 0
-256 259 0
-12 -256 260 0
-257 261 0
-259 261 0
-257 -259 262 0
-258 263 0
-260 263 0
-258 -260 264 0
-262 265 0
-263 265 0
-262 -263 266 0
-265 0
28 29 30 0
-267 0
-28 268 0
-29 268 0
-28 -29 269 0
-30 270 0
-267 270 0
-30 -267 271 0
-268 272 0
-270 272 0
-268 -270 273 0
-269 274 0
-271 274 0
-269 -271 275 0
-273 276 0
-274 276 0
-273 -274 277 0
-276 0
46 47 48 0
-278 0
-46 279 0
-47 279 0
-46 -47 280 0
-48 281 0
-278 281 0
-48 -278 282 0
-279 283 0
-281 283 0
-279 -281 284 0
-280 285 0
-282 285 0
-280 -282 286 0
-284 287 0
-285 287 0
-284 -285 288 0
-287 0
64 65 66 0
-289 0
-64 290 0
-65 290 0
-64 -65 291 0
-66 292 0
-289 292 0
-66 -289 293 0
-290 294 0
-292 294 0
-290 -292 295 0
-291 296 0
-293 296 0
-291 -293 297 0
-295 298 0
-296 298 0
-295 -296 299 0
-298 0
82 83 84 0
-300 0
-82 301 0
-83 301 0
-82 -83 302 0
-84 303 0
-300 303 0
-84 -300 304 0
-301 305 0
-303 305 0
-301 -303 306 0
-302 307 0
-304 307 0
-302 -304 308 0
-306 309 0
-307 309 0
-306 -307 310 0
-309 0
13 14 15 0
-311 0
-13 312 0
-14 312 0
-13 -14 313 0
-15 314 0
-311 314 0
-15 -311 315 0
-312 316 0
-314 316 0
-312 -314 317 0
-313 318 0
-315 318 0
-313 -315 319 0
-317 320 0
-318 320 0
-317 -318 321 0
-320 0
31 32 33 0
-322 0
-31 323 0
-32 323 0
-31 -32 324 0
-33 325 0
-322 325 0
-33 -322 326 0
-323 327 0
-325 327 0
-323 -325 328 0
-324 329 0
-326 329 0
-324 -326 330 0
-328 331 0
-329 331 0
-328 -329 332 0
-331 0
49 50 51 0
-333 0
-49 334 0
-50 334 0
-49 -50 335 0
-51 336 0
-333 336 0
-51 -333 337 0
-334 338 0
-336 338 0
-334 -336 339 0
-335 340 0
-337 340 0
-335 -337 341 0
-339 342 0
-340 342 0
-339 -340 343 0
-342 0
67 68 69 0
-344 0
-67 345 0
-68 345 0
-67 -68 346 0
-69 347 0
-344 347 0
-69 -344 348 0
-345 349 0
-347 349 0
-345 -347 350 0
-346 351 0
-348 351 0
-346 -348 352 0
-350 353 0
-351 353 0
-350 -351 354 0
-353 0
85 86 87 0
-355 0
-85 356 0
-86 356 0
-85 -86 357 0
-87 358 0
-355 358 0
-87 -355 359 0
-356 360 0
-358 360 0
-356 -358 361 0
-357 362 0
-359 362 0
-357 -359 363 0
-361 364 0
-362 364 0
-361 -362 365 0
-364 0
16 17 18 0
-366 0
-16 367 0
-17 367 0
-16 -17 368 0
-18 369 0
-366 369 0
-18 -366 370 0
-367 371 0
-369 371 0
-367 -369 372 0
-368 373 0
-370 373 0
-368 -370 374 0
-372 375 0
-373 375 0
-372 -373 376 0
-375 0
34 35 36 0
-377 0
-34 378 0
-35 378 0
-34 -35 379 0
-36 380 0
-377 380 0
-36 -377 381 0
-378 382 0
-380 382 0
-378 -380 383 0
-379 384 0
-381 384 0
-379 -381 385 0
-383 386 0
-384 386 0
-383 -384 387 0
-386 0
52 53 54 0
-388 0
-52 389 0
-53 389 0
-52 -53 390 0
-54 391 0
-388 391 0
-54 -388 392 0
-389 393 0
-391 393 0
-389 -391 394 0
-390 395 0
-392 395 0
-390 -392 396 0
-394 397 0
-395 397 0
-394 -395 398 0
-397 0
70 71 72 0
-399 0
-70 400 0
-71 400 0
-70 -71 401 0
-72 402 0
-399 402 0
-72 -399 403 0
-400 404 0
-402 404 0
-400 -402 405 0
-401 406 0
-403 406 0
-401 -403 407 0
-405 408 0
-406 408 0
-405 -406 409 0
-408 0
88 89 90 0
-410 0
-88 411 0
-89 411 0
-88 -89 412 0
-90 413 0
-410 413 0
-90 -410 414 0
-411 415 0
-413 415 0
-411 -413 416 0
-412 417 0
-414 417 0
-412 -414 418 0
-416 419 0
-417 419 0
-416 -417 420 0
-419 0
-1 -19 -73 5 0
-1 -20 -73 5 0
-1 -21 -73 5 0
-1 -19 -74 5 0
-1 -20 -74 5 0
-1 -21 -74 5 0
-1 -19 -75 5 0
-1 -20 -75 5 0
-1 -21 -75 5 0
-2 -19 -73 5 0
-2 -20 -73 5 0
-2 -21 -73 5 0
-2 -19 -74 5 0
-2 -20 -74 6 0
-2 -21 -74 6 0
-2 -19 -75 5 0
-2 -20 -75 6 0
-2 -21 -75 6 0
-3 -19 -73 5 0
-3 -20 -73 5 0
-3 -21 -73 5 0
-3 -19 -74 5 0
-3 -20 -74 6 0
-3 -21 -74 6 0
-3 -19 -75 5 0
-3 -20 -75 6 0
-3 -21 -75 4 0
-19 -1 -37 23 0
-19 -2 -37 23 0
-19 -3 -37 23 0
-19 -1 -38 23 0
-19 -2 -38 23 0
-19 -3 -38 23 0
-19 -1 -39 23 0
-19 -2 -39 23 0
-19 -3 -39 23 0
-20 -1 -37 23 0
-20 -2 -37 23 0
-20 -3 -37 23 0
-20 -1 -38 23 0
-20 -2 -38 24 0
-20 -3 -38 24 0
-20 -1 -39 23 0
-20 -2 -39 24 0
-20 -3 -39 24 0
-21 -1 -37 23 0
-21 -2 -37 23 0
-21 -3 -37 23 0
-21 -1 -38 23 0
-21 -2 -38 24 0
-21 -3 -38 24 0
-21 -1 -39 23 0
-21 -2 -39 24 0
-21 -3 -39 22 0
-37 -19 -55 41 0
-37 -20 -55 41 0
-37 -21 -55 41 0
-37 -19 -56 41 0
-37 -20 -56 41 0
-37 -21 -56 41 0
-37 -19 -57 41 0
-37 -20 -57 41 0
-37 -21 -57 41 0
-38 -19 -55 41 0
-38 -20 -55 41 0
-38 -21 -55 41 0
-38 -19 -56 41 0
-38 -20 -56 42 0
-38 -21 -56 42 0
-38 -19 -57 41 0
-38 -20 -57 42 0
-38 -21 -57 42 0
-39 -19 -55 41 0
-39 -20 -55 41 0
-39 -21 -55 41 0
-39 -19 -56 41 0
-39 -20 -56 42 0
-39 -21 -56 42 0
-39 -19 -57 41 0
-39 -20 -57 42 0
-39 -21 -57 40 0
-55 -37 -73 59 0
-55 -38 -73 59 0
-55 -39 -73 59 0
-55 -37 -74 59 0
-55 -38 -74 59 0
-55 -39 -74 59 0
-55 -37 -75 59 0
-55 -38 -75 59 0
-55 -39 -75 59 0
-56 -37 -73 59 0
-56 -38 -73 59 0
-56 -39 -73 59 0
-56 -37 -74 59 0
-56 -38 -74 60 0
-56 -39 -74 60 0
-56 -37 -75 59 0
-56 -38 -75 60 0
-56 -39 -75 60 0
-57 -37 -73 59 0
-57 -38 -73 59 0
-57 -39 -73 59 0
-57 -37 -74 59 0
-57 -38 -74 60 0
-57 -39 -74 60 0
-57 -37 -75 59 0
-57 -38 -75 60 0
-57 -39 -75 58 0
-73 -1 -55 77 0
-73 -2 -55 77 0
-73 -3 -55 77 0
-73 -1 -56 77 0
-73 -2 -56 77 0
-73 -3 -56 77 0
-73 -1 -57 77 0
-73 -2 -57 77 0
-73 -3 -57 77 0
-74 -1 -55 77 0
-74 -2 -55 77 0
-74 -3 -55 77 0
-74 -1 -56 77 0
-74 -2 -56 78 0
-74 -3 -56 78 0
-74 -1 -57 77 0
-74 -2 -57 78 0
-74 -3 -57 78 0
-75 -1 -55 77 0
-75 -2 -55 77 0
-75 -3 -55 77 0
-75 -1 -56 77 0
-75 -2 -56 78 0
-75 -3 -56 78 0
-75 -1 -57 77 0
-75 -2 -57 78 0
-75 -3 -57 76 0
-4 -22 -76 8 0
-4 -23 -76 8 0
-4 -24 -76 8 0
-4 -22 -77 8 0
-4 -23 -77 8 0
-4 -24 -77 8 0
-4 -22 -78 8 0
-4 -23 -78 8 0
-4 -24 -78 8 0
-5 -22 -76 8 0
-5 -23 -76 8 0
-5 -24 -76 8 0
-5 -22 -77 8 0
-5 -23 -77 9 0
-5 -24 -77 9 0
-5 -22 -78 8 0
-5 -23 -78 9 0
-5 -24 -78 9 0
-6 -22 -76 8 0
-6 -23 -76 8 0
-6 -24 -76 8 0
-6 -22 -77 8 0
-6 -23 -77 9 0
-6 -24 -77 9 0
-6 -22 -78 8 0
-6 -23 -78 9 0
-6 -24 -78 7 0
-22 -4 -40 26 0
-22 -5 -40 26 0
-22 -6 -40 26 0
-22 -4 -41 26 0
-22 -5 -41 26 0
-22 -6 -41 26 0
-22 -4 -42 26 0
-22 -5 -42 26 0
-22 -6 -42 26 0
-23 -4 -40 26 0
-23 -5 -40 26 0
-23 -6 -40 26 0
-23 -4 -41 26 0
-23 -5 -41 27 0
-23 -6 -41 27 0
-23 -4 -42 26 0
-23 -5 -42 27 0
-23 -6 -42 27 0
-24 -4 -40 26 0
-24 -5 -40 26 0
-24 -6 -40 26 0
-24 -4 -41 26 0
-24 -5 -41 27 0
-24 -6 -41 27 0
-24 -4 -42 26 0
-24 -5 -42 27 0
-24 -6 -42 25 0
-40 -22 -58 44 0
-40 -23 -58 44 0
-40 -24 -58 44 0
-40 -22 -59 44 0
-40 -23 -59 44 0
-40 -24 -59 44 0
-40 -22 -60 44 0
-40 -23 -60 44 0
-40 -24 -60 44 0
-41 -22 -58 44 0
-41 -23 -58 44 0
-41 -24 -58 44 0
-41 -22 -59 44 0
-41 -23 -59 45 0
-41 -24 -59 45 0
-41 -22 -60 44 0
-41 -23 -60 45 0
-41 -24 -60 45 0
-42 -22 -58 44 0
-42 -23 -58 44 0
-42 -24 -58 44 0
-42 -22 -59 44 0
-42 -23 -59 45 0
-42 -24 -59 45 0
-42 -22 -60 44 0
-42 -23 -60 45 0
-42 -24 -60 43 0
-58 -40 -76 62 0
-58 -41 -76 62 0
-58 -42 -76 62 0
-58 -40 -77 62 0
-58 -41 -77 62 0
-58 -42 -77 62 0
-58 -40 -78 62 0
-58 -41 -78 62 0
-58 -42 -78 62 0
-59 -40 -76 62 0
-59 -41 -76 62 0
-59 -42 -76 62 0
-59 -40 -77 62 0
-59 -41 -77 63 0
-59 -42 -77 63 0
-59 -40 -78 62 0
-59 -41 -78 63 0
-59 -42 -78 63 0
-60 -40 -76 62 0
-60 -41 -76 62 0
-60 -42 -76 62 0
-60 -40 -77 62 0
-60 -41 -77 63 0
-60 -42 -77 63 0
-60 -40 -78 62 0
-60 -41 -78 63 0
-60 -42 -78 61 0
-76 -4 -58 80 0
-76 -5 -58 80 0
-76 -6 -58 80 0
-76 -4 -59 80 0
-76 -5 -59 80 0
-76 -6 -59 80 0
-76 -4 -60 80 0
-76 -5 -60 80 0
-76 -6 -60 80 0
-77 -4 -58 80 0
-77 -5 -58 80 0
-77 -6 -58 80 0
-77 -4 -59 80 0
-77 -5 -59 81 0
-77 -6 -59 81 0
-77 -4 -60 80 0
-77 -5 -60 81 0
-77 -6 -60 81 0
-78 -4 -58 80 0
-78 -5 -58 80 0
-78 -6 -58 80 0
-78 -4 -59 80 0
-78 -5 -59 81 0
-78 -6 -59 81 0
-78 -4 -60 80 0
-78 -5 -60 81 0
-78 -6 -60 79 0
-7 -25 -79 11 0
-7 -26 -79 11 0
-7 -27 -79 11 0
-7 -25 -80 11 0
-7 -26 -80 11 0
-7 -27 -80 11 0
-7 -25 -81 11 0
-7 -26 -81 11 0
-7 -27 -81 11 0
-8 -25 -79 11 0
-8 -26 -79 11 0
-8 -27 -79 11 0
-8 -25 -80 11 0
-8 -26 -80 12 0
-8 -27 -80 12 0
-8 -25 -81 11 0
-8 -26 -81 12 0
-8 -27 -81 12 0
-9 -25 -79 11 0
-9 -26 -79 11 0
-9 -27 -79 11 0
-9 -25 -80 11 0
-9 -26 -80 12 0
-9 -27 -80 12 0
-9 -25 -81 11 0
-9 -26 -81 12 0
-9 -27 -81 10 0
-25 -7 -43 29 0
-25 -8 -43 29 0
-25 -9 -43 29 0
-25 -7 -44 29 0
-25 -8 -44 29 0
-25 -9 -44 29 0
-25 -7 -45 29 0
-25 -8 -45 29 0
-25 -9 -45 29 0
-26 -7 -43 29 0
-26 -8 -43 29 0
-26 -9 -43 29 0
-26 -7 -44 29 0
-26 -8 -44 30 0
-26 -9 -44 30 0
-26 -7 -45 29 0
-26 -8 -45 30 0
-26 -9 -45 30 0
-27 -7 -43 29 0
-27 -8 -43 29 0
-27 -9 -43 29 0
-27 -7 -44 29 0
-27 -8 -44 30 0
-27 -9 -44 30 0
-27 -7 -45 29 0
-27 -8 -45 30 0
-27 -9 -45 28 0
-43 -25 -61 47 0
-43 -26 -61 47 0
-43 -27 -61 47 0
-43 -25 -62 47 0
-43 -26 -62 47 0
-43 -27 -62 47 0
-43 -25 -63 47 0
-43 -26 -63 47 0
-43 -27 -63 47 0
-44 -25 -61 47 0
-44 -26 -61 47 0
-44 -27 -61 47 0
-44 -25 -62 47 0
-44 -26 -62 48 0
-44 -27 -62 48 0
-44 -25 -63 47 0
-44 -26 -63 48 0
-44 -27 -63 48 0
-45 -25 -61 47 0
-45 -26 -61 47 0
-45 -27 -61 47 0
-45 -25 -62 47 0
-45 -26 -62 48 0
-45 -27 -62 48 0
-45 -25 -63 47 0
-45 -26 -63 48 0
-45 -27 -63 46 0
-61 -43 -79 65 0
-61 -44 -79 65 0
-61 -45 -79 65 0
-61 -43 -80 65 0
-61 -44 -80 65 0
-61 -45 -80 65 0
-61 -43 -81 65 0
-61 -44 -81 65 0
-61 -45 -81 65 0
-62 -43 -79 65 0
-62 -44 -79 65 0
-62 -45 -79 65 0
-62 -43 -80 65 0
-62 -44 -80 66 0
-62 -45 -80 66 0
-62 -43 -81 65 0
-62 -44 -81 66 0
-62 -45 -81 66 0
-63 -43 -79 65 0
-63 -44 -79 65 0
-63 -45 -79 65 0
-63 -43 -80 65 0
-63 -44 -80 66 0
-63 -45 -80 66 0
-63 -43 -81 65 0
-63 -44 -81 66 0
-63 -45 -81 64 0
-79 -7 -61 83 0
-79 -8 -61 83 0
-79 -9 -61 83 0
-79 -7 -62 83 0
-79 -8 -62 83 0
-79 -9 -62 83 0
-79 -7 -63 83 0
-79 -8 -63 83 0
-79 -9 -63 83 0
-80 -7 -61 83 0
-80 -8 -61 83 0
-80 -9 -61 83 0
-80 -7 -62 83 0
-80 -8 -62 84 0
-80 -9 -62 84 0
-80 -7 -63 83 0
-80 -8 -63 84 0
-80 -9 -63 84 0
-81 -7 -61 83 0
-81 -8 -61 83 0
-81 -9 -61 83 0
-81 -7 -62 83 0
-81 -8 -62 84 0
-81 -9 -62 84 0
-81 -7 -63 83 0
-81 -8 -63 84 0
-81 -9 -63 82 0
-10 -28 -82 14 0
-10 -29 -82 14 0
-10 -30 -82 14 0
-10 -28 -83 14 0
-10 -29 -83 14 0
-10 -30 -83 14 0
-10 -28 -84 14 0
-10 -29 -84 14 0
-10 -30 -84 14 0
-11 -28 -82 14 0
-11 -29 -82 14 0
-11 -30 -82 14 0
-11 -28 -83 14 0
-11 -29 -83 15 0
-11 -30 -83 15 0
-11 -28 -84 14 0
-11 -29 -84 15 0
-11 -30 -84 15 0
-12 -28 -82 14 0
-12 -29 -82 14 0
-12 -30 -82 14 0
-12 -28 -83 14 0
-12 -29 -83 15 0
-12 -30 -83 15 0
-12 -28 -84 14 0
-12 -29 -84 15 0
-12 -30 -84 13 0
-28 -10 -46 32 0
-28 -11 -46 32 0
-28 -12 -46 32 0
-28 -10 -47 32 0
-28 -11 -47 32 0
-28 -12 -47 32 0
-28 -10 -48 32 0
-28 -11 -48 32 0
-28 -12 -48 32 0
-29 -10 -46 32 0
-29 -11 -46 32 0
-29 -12 -46 32 0
-29 -10 -47 32 0
-29 -11 -47 33 0
-29 -12 -47 33 0
-29 -10 -48 32 0
-29 -11 -48 33 0
-29 -12 -48 33 0
-30 -10 -46 32 0
-30 -11 -46 32 0
-30 -12 -46 32 0
-30 -10 -47 32 0
-30 -11 -47 33 0
-30 -12 -47 33 0
-30 -10 -48 32 0
-30 -11 -48 33 0
-30 -12 -48 31 0
-46 -28 -64 50 0
-46 -29 -64 50 0
-46 -30 -64 50 0
-46 -28 -65 50 0
-46 -29 -65 50 0
-46 -30 -65 50 0
-46 -28 -66 50 0
-46 -29 -66 50 0
-46 -30 -66 50 0
-47 -28 -64 50 0
-47 -29 -64 50 0
-47 -30 -64 50 0
-47 -28 -65 50 0
-47 -29 -65 51 0
-47 -30 -65 51 0
-47 -28 -66 50 0
-47 -29 -66 51 0
-47 -30 -66 51 0
-48 -28 -64 50 0
-48 -29 -64 50 0
-48 -30 -64 50 0
-48 -28 -65 50 0
-48 -29 -65 51 0
-48 -30 -65 51 0
-48 -28 -66 50 0
-48 -29 -66 51 0
-48 -30 -66 49 0
-64 -46 -82 68 0
-64 -47 -82 68 0
-64 -48 -82 68 0
-64 -46 -83 68 0
-64 -47 -83 68 0
-64 -48 -83 68 0
-64 -46 -84 68 0
-64 -47 -84 68 0
-64 -48 -84 68 0
-65 -46 -82 68 0
-65 -47 -82 68 0
-65 -48 -82 68 0
-65 -46 -83 68 0
-65 -47 -83 69 0
-65 -48 -83 69 0
-65 -46 -84 68 0
-65 -47 -84 69 0
-65 -48 -84 69 0
-66 -46 -82 68 0
-66 -47 -82 68 0
-66 -48 -82 68 0
-66 -46 -83 68 0
-66 -47 -83 69 0
-66 -48 -83 69 0
-66 -46 -84 68 0
-66 -47 -84 69 0
-66 -48 -84 67 0
-82 -10 -64 86 0
-82 -11 -64 86 0
-82 -12 -64 86 0
-82 -10 -65 86 0
-82 -11 -65 86 0
-82 -12 -65 86 0
-82 -10 -66 86 0
-82 -11 -66 86 0
-82 -12 -66 86 0
-83 -10 -64 86 0
-83 -11 -64 86 0
-83 -12 -64 86 0
-83 -10 -65 86 0
-83 -11 -65 87 0
-83 -12 -65 87 0
-83 -10 -66 86 0
-83 -11 -66 87 0
-83 -12 -66 87 0
-84 -10 -64 86 0
-84 -11 -64 86 0
-84 -12 -64 86 0
-84 -10 -65 86 0
-84 -11 -65 87 0
-84 -12 -65 87 0
-84 -10 -66 86 0
-84 -11 -66 87 0
-84 -12 -66 85 0
-13 -31 -85 17 0
-13 -32 -85 17 0
-13 -33 -85 17 0
-13 -31 -86 17 0
-13 -32 -86 17 0
-13 -33 -86 17 0
-13 -31 -87 17 0
-13 -32 -87 17 0
-13 -33 -87 17 0
-14 -31 -85 17 0
-14 -32 -85 17 0
-14 -33 -85 17 0
-14 -31 -86 17 0
-14 -32 -86 18 0
-14 -33 -86 18 0
-14 -31 -87 17 0
-14 -32 -87 18 0
-14 -33 -87 18 0
-15 -31 -85 17 0
-15 -32 -85 17 0
-15 -33 -85 17 0
-15 -31 -86 17 0
-15 -32 -86 18 0
-15 -33 -86 18 0
-15 -31 -87 17 0
-15 -32 -87 18 0
-15 -33 -87 16 0
-31 -13 -49 35 0
-31 -14 -49 35 0
-31 -15 -49 35 0
-31 -13 -50 35 0
-31 -14 -50 35 0
-31 -15 -50 35 0
-31 -13 -51 35 0
-31 -14 -51 35 0
-31 -15 -51 35 0
-32 -13 -49 35 0
-32 -14 -49 35 0
-32 -15 -49 35 0
-32 -13 -50 35 0
-32 -14 -50 36 0
-32 -15 -50 36 0
-32 -13 -51 35 0
-32 -14 -51 36 0
-32 -15 -51 36 0
-33 -13 -49 35 0
-33 -14 -49 35 0
-33 -15 -49 35 0
-33 -13 -50 35 0
-33 -14 -50 36 0
-33 -15 -50 36 0
-33 -13 -51 35 0
-33 -14 -51 36 0
-33 -15 -51 34 0
-49 -31 -67 53 0
-49 -32 -67 53 0
-49 -33 -67 53 0
-49 -31 -68 53 0
-49 -32 -68 53 0
-49 -33 -68 53 0
-49 -31 -69 53 0
-49 -32 -69 53 0
-49 -33 -69 53 0
-50 -31 -67 53 0
-50 -32 -67 53 0
-50 -33 -67 53 0
-50 -31 -68 53 0
-50 -32 -68 54 0
-50 -33 -68 54 0
-50 -31 -69 53 0
-50 -32 -69 54 0
-50 -33 -69 54 0
-51 -31 -67 53 0
-51 -32 -67 53 0
-51 -33 -67 53 0
-51 -31 -68 53 0
-51 -32 -68 54 0
-51 -33 -68 54 0
-51 -31 -69 53 0
-51 -32 -69 54 0
-51 -33 -69 52 0
-67 -49 -85 71 0
-67 -50 -85 71 0
-67 -51 -85 71 0
-67 -49 -86 71 0
-67 -50 -86 71 0
-67 -51 -86 71 0
-67 -49 -87 71 0
-67 -50 -87 71 0
-67 -51 -87 71 0
-68 -49 -85 71 0
-68 -50 -85 71 0
-68 -51 -85 71 0
-68 -49 -86 71 0
-68 -50 -86 72 0
-68 -51 -86 72 0
-68 -49 -87 71 0
-68 -50 -87 72 0
-68 -51 -87 72 0
-69 -49 -85 71 0
-69 -50 -85 71 0
-69 -51 -85 71 0
-69 -49 -86 71 0
-69 -50 -86 72 0
-69 -51 -86 72 0
-69 -49 -87 71 0
-69 -50 -87 72 0
-69 -51 -87 70 0
-85 -13 -67 89 0
-85 -14 -67 89 0
-85 -15 -67 89 0
-85 -13 -68 89 0
-85 -14 -68 89 0
-85 -15 -68 89 0
-85 -13 -69 89 0
-85 -14 -69 89 0
-85 -15 -69 89 0
-86 -13 -67 89 0
-86 -14 -67 89 0
-86 -15 -67 89 0
-86 -13 -68 89 0
-86 -14 -68 90 0
-86 -15 -68 90 0
-86 -13 -69 89 0
-86 -14 -69 90 0
-86 -15 -69 90 0
-87 -13 -67 89 0
-87 -14 -67 89 0
-87 -15 -67 89 0
-87 -13 -68 89 0
-87 -14 -68 90 0
-87 -15 -68 90 0
-87 -13 -69 89 0
-87 -14 -69 90 0
-87 -15 -69 88 0
92 93 94 95 96 0
100 101 102 -92 0
1 -100 0
4 -100 0
2 -101 0
5 -101 0
3 -102 0
6 -102 0
118 119 120 -92 0
19 -118 0
22 -118 0
20 -119 0
23 -119 0
21 -120 0
24 -120 0
136 137 138 -92 0
37 -136 0
40 -136 0
38 -137 0
41 -137 0
39 -138 0
42 -138 0
154 155 156 -92 0
55 -154 0
58 -154 0
56 -155 0
59 -155 0
57 -156 0
60 -156 0
172 173 174 -92 0
73 -172 0
76 -172 0
74 -173 0
77 -173 0
75 -174 0
78 -174 0
103 104 105 -93 0
1 -103 0
7 -103 0
2 -104 0
8 -104 0
3 -105 0
9 -105 0
121 122 123 -93 0
19 -121 0
25 -121 0
20 -122 0
26 -122 0
21 -123 0
27 -123 0
139 140 141 -93 0
37 -139 0
43 -139 0
38 -140 0
44 -140 0
39 -141 0
45 -141 0
157 158 159 -93 0
55 -157 0
61 -157 0
56 -158 0
62 -158 0
57 -159 0
63 -159 0
175 176 177 -93 0
73 -175 0
79 -175 0
74 -176 0
80 -176 0
75 -177 0
81 -177 0
106 107 108 -94 0
1 -106 0
10 -106 0
2 -107 0
11 -107 0
3 -108 0
12 -108 0
124 125 126 -94 0
19 -124 0
28 -124 0
20 -125 0
29 -125 0
21 -126 0
30 -126 0
142 143 144 -94 0
37 -142 0
46 -142 0
38 -143 0
47 -143 0
39 -144 0
48 -144 0
160 161 162 -94 0
55 -160 0
64 -160 0
56 -161 0
65 -161 0
57 -162 0
66 -162 0
178 179 180 -94 0
73 -178 0
82 -178 0
74 -179 0
83 -179 0
75 -180 0
84 -180 0
109 110 111 -95 0
1 -109 0
13 -109 0
2 -110 0
14 -110 0
3 -111 0
15 -111 0
127 128 129 -95 0
19 -127 0
31 -127 0
20 -128 0
32 -128 0
21 -129 0
33 -129 0
145 146 147 -95 0
37 -145 0
49 -145 0
38 -146 0
50 -146 0
39 -147 0
51 -147 0
163 164 165 -95 0
55 -163 0
67 -163 0
56 -164 0
68 -164 0
57 -165 0
69 -165 0
181 182 183 -95 0
73 -181 0
85 -181 0
74 -182 0
86 -182 0
75 -183 0
87 -183 0
112 113 114 -96 0
1 -112 0
16 -112 0
2 -113 0
17 -113 0
3 -114 0
18 -114 0
130 131 132 -96 0
19 -130 0
34 -130 0
20 -131 0
35 -131 0
21 -132 0
36 -132 0
148 149 150 -96 0
37 -148 0
52 -148 0
38 -149 0
53 -149 0
39 -150 0
54 -150 0
166 167 168 -96 0
55 -166 0
70 -166 0
56 -167 0
71 -167 0
57 -168 0
72 -168 0
184 185 186 -96 0
73 -184 0
88 -184 0
74 -185 0
89 -185 0
75 -186 0
90 -186 0
-1 -19 -37 -55 -73 0
-2 -20 -38 -56 -74 0
-3 -21 -39 -57 -75 0
